HFSDDW
15	6	2
0	89	1	79
0	29	1	69
0	83	1	45
0	43	1	62
0	90	1	28
0	65	1	36
0	47	1	6
0	18	1	66
0	46	1	8
0	7	1	19
0	93	1	56
0	4	1	54
0	79	1	91
0	39	1	16
0	35	1	20
LBCmax: 266
RELDUE
-1	151	3	5
-1	75	6	2
-1	38	3	2
-1	169	9	5
-1	43	6	2
-1	71	3	7
-1	166	7	9
-1	44	9	1
-1	133	3	3
-1	163	7	5
-1	148	4	3
-1	73	6	9
-1	91	9	8
-1	89	4	4
-1	57	2	4
DDW
131	171
72	78
33	43
157	181
39	47
65	77
139	193
35	53
130	136
161	165
121	175
61	85
82	100
76	102
48	66
